Nb of jobs, Nb of Machines, Time seed, Machine seed, Upper bound, Lower bound
3,8,-1,-1,-1,-1
Times
72,34,3,43,26,58,77,7
94,72,21,24,42,30,38,86
19,24,37,57,78,32,3,58
Machines
5,7,8,4,3,6,2,1
8,7,6,2,5,3,1,4
7,3,4,2,6,5,8,1
